0 25
0 125
0 142
0 175
0 185
0 204
0 213
0 242
0 270
0 276
0 292
0 293
0 296
0 313
0 316
0 396
0 419
0 475
0 481
0 505
0 530
0 554
0 561
0 602
0 603
0 618
0 641
0 811
0 812
0 813
0 814
0 815
0 820
0 866
0 869
0 930
0 983
0 1569
0 1570
0 1571
0 1572
0 1573
0 1574
0 1575
0 1576
0 1577
0 1578
0 1579
0 1580
0 1581
0 1582
0 1583
0 1584
0 1585
0 1586
0 1587
0 1588
0 1589
0 1590
0 1591
0 1592
0 1593
0 1594
0 1595
0 1596
0 1597
0 1598
0 1599
0 1600
0 1601
0 1602
0 1603
0 1604
0 1605
0 1606
0 1607
0 1608
0 1609
0 1610
0 1611
0 1612
0 1613
0 1614
0 1615
0 1616
0 1617
0 1618
0 1619
0 1620
0 1621
0 1622
0 1623
0 1624
0 1625
0 1626
1 74
1 89
1 92
1 154
1 169
1 238
1 291
1 300
1 336
1 337
1 355
1 377
1 418
1 440
1 447
1 505
1 552
1 639
1 803
1 819
1 891
1 958
1 970
1 971
1 974
1 1029
1 1030
1 1031
1 1032
1 1033
2 37
2 118
2 156
2 169
2 174
2 202
2 204
2 213
2 216
2 229
2 236
2 238
2 239
2 244
2 247
2 248
2 250
2 251
2 257
2 262
2 264
2 266
2 268
2 275
2 280
2 283
2 287
2 290
2 300
2 302
2 304
2 310
2 333
2 359
2 360
2 365
2 372
2 374
2 377
2 385
2 388
2 393
2 402
2 411
2 413
2 428
2 429
2 433
2 439
2 443
2 461
2 466
2 490
2 494
2 495
2 507
2 511
2 520
2 546
2 557
2 567
2 591
2 617
2 620
2 634
2 662
2 663
2 682
2 685
2 686
2 760
2 761
2 762
2 763
2 764
2 765
2 766
2 783
2 784
2 792
2 793
2 823
2 834
2 876
2 889
2 892
2 893
2 945
2 956
2 957
2 1459
2 1460
2 1461
2 1462
2 1463
2 1464
2 1465
2 1466
2 1467
2 1468
2 1469
2 1470
2 1471
2 1472
2 1473
2 1474
2 1475
2 1476
2 1477
2 1478
2 1479
2 1480
2 1481
2 1482
2 1483
2 1484
2 1485
2 1486
2 1487
2 1488
2 1489
2 1490
2 1491
2 1492
2 1493
2 1494
2 1495
2 1496
2 1497
2 1498
2 1499
2 1500
2 1501
2 1502
2 1503
2 1504
2 1505
2 1506
2 1507
2 1508
2 1509
2 1510
2 1511
3 213
3 247
3 276
3 316
3 343
3 470
3 1034
4 7
4 70
4 87
4 152
4 263
4 285
4 312
4 336
4 355
4 380
4 395
5 450
5 910
5 911
5 1807
6 131
6 221
6 276
6 348
6 349
6 532
6 533
6 644
6 906
6 907
6 908
6 909
6 1805
6 1806
7 23
7 27
7 43
7 70
7 87
7 152
7 162
7 242
7 263
7 285
7 330
7 335
7 377
7 380
7 395
7 400
7 417
7 433
7 434
7 471
7 489
7 936
8 56
8 68
8 93
8 117
8 168
8 184
8 202
8 239
8 240
8 242
8 243
8 245
8 251
8 264
8 265
8 287
8 302
8 314
8 315
8 332
8 334
8 340
8 350
8 355
8 388
8 411
8 412
8 426
8 428
8 442
8 465
8 489
8 534
8 560
8 576
8 645
8 860
8 880
8 912
8 914
8 915
8 1124
8 1125
8 1126
8 1127
8 1128
8 1129
8 1130
8 1131
8 1132
8 1133
8 1134
9 55
9 66
9 80
9 405
9 423
9 543
9 544
9 580
10 269
10 415
10 475
10 564
10 695
10 696
10 969
10 1958
11 127
11 169
11 175
11 264
11 385
11 398
11 541
11 563
11 694
12 14
12 206
12 229
12 240
12 257
12 359
12 391
12 407
12 424
12 461
12 545
12 664
12 666
12 667
12 778
12 864
12 941
12 942
12 943
12 944
12 1025
12 1026
12 1027
12 1028
13 108
13 621
13 799
14 257
14 264
14 359
14 407
14 461
14 664
14 665
14 666
14 667
14 941
14 942
14 943
14 944
14 945
14 946
14 1910
14 1911
14 1912
14 1913
14 1914
14 1915
14 1916
15 276
15 312
15 405
15 423
15 475
15 602
15 910
16 18
16 189
16 252
16 264
16 289
16 312
16 340
16 354
16 390
16 391
16 397
16 424
16 432
16 570
16 642
16 714
16 716
16 745
16 765
16 1154
16 1155
16 1156
17 113
17 221
17 269
17 325
17 401
17 563
17 931
18 20
18 112
18 149
18 289
18 354
18 359
18 390
18 391
18 397
18 424
18 545
18 584
18 745
18 1424
19 920
19 921
19 922
19 923
19 924
19 979
19 1816
19 1817
19 1818
19 1819
19 1820
19 1821
19 1822
19 1823
19 1824
19 1825
19 1826
19 1827
19 1828
19 1829
19 1830
19 1831
19 1832
19 1833
19 1834
19 1835
19 1836
19 1837
19 1838
19 1839
19 1840
19 1841
19 1842
19 1843
19 1844
19 1845
19 1846
19 1847
19 1848
19 1849
19 1850
19 1851
19 1852
19 1853
19 1854
19 1855
19 1856
19 1857
19 1858
19 1859
19 1860
19 1861
19 1862
19 1863
19 1864
19 1865
19 1866
19 1867
19 1868
19 1869
19 1870
19 1871
19 1872
19 1873
19 1874
19 1875
19 1876
19 1877
19 1878
19 1879
19 1880
19 1881
19 1882
19 1883
20 36
20 112
20 264
20 289
20 340
20 354
20 359
20 390
20 391
20 397
20 424
20 461
20 570
20 584
20 714
21 276
21 348
21 396
21 401
21 513
21 530
21 612
21 1678
21 1679
21 1680
21 1681
22 222
22 246
22 329
22 353
22 458
22 657
22 879
22 993
22 994
22 995
22 996
22 997
22 998
23 43
23 152
23 203
23 238
23 263
23 281
23 337
23 343
23 355
23 380
23 400
23 701
23 1726
23 1727
23 1728
23 1729
24 71
24 410
24 440
24 459
24 460
24 514
24 515
24 578
24 579
24 597
24 740
24 1376
24 1377
25 57
25 62
25 136
25 203
25 238
25 291
25 313
25 318
25 326
25 327
25 342
25 383
25 434
25 518
25 529
25 602
25 603
25 616
25 646
25 715
25 811
25 813
25 814
25 1204
25 1205
25 1206
26 48
26 81
26 169
26 247
26 254
26 299
26 300
26 317
26 344
26 345
26 376
26 414
26 448
26 562
26 875
26 899
26 916
26 966
26 1741
26 1742
26 1743
26 1744
26 1745
26 1746
27 43
27 87
27 152
27 263
27 285
27 380
27 400
27 660
28 147
28 185
28 203
28 276
28 476
28 481
28 978
28 979
28 1964
28 1965
28 1966
28 1967
28 1968
28 1969
28 1970
28 1971
28 1972
28 1973
28 1974
28 1975
28 1976
28 1977
28 1978
28 1979
28 1980
28 1981
28 1982
28 1983
28 1984
28 1985
28 1986
28 1987
28 1988
28 1989
28 1990
28 1991
28 1992
29 289
29 340
29 354
29 359
29 390
29 451
29 584
30 98
30 202
30 203
30 252
30 269
30 385
30 529
30 641
30 894
30 1798
30 1799
31 57
31 68
31 94
31 111
31 202
31 229
31 240
31 243
31 244
31 245
31 251
31 265
31 267
31 275
31 286
31 288
31 298
31 330
31 331
31 510
31 511
31 610
31 1082
31 1083
31 1084
32 202
32 222
32 229
32 242
32 245
32 252
32 265
32 266
32 275
32 289
32 313
32 327
32 335
32 364
32 365
32 410
32 449
32 464
32 558
32 578
32 579
32 589
32 631
32 900
32 939
32 1337
32 1338
33 48
33 108
33 169
33 247
33 254
33 300
33 301
33 313
33 317
33 326
33 337
33 363
33 376
33 418
33 448
33 464
33 550
33 556
33 642
33 899
33 1801
34 221
34 561
34 1106
35 108
35 141
35 533
35 743
36 415
36 471
36 621
36 695
36 861
36 1257
37 60
37 64
37 156
37 163
37 174
37 207
37 209
37 213
37 216
37 229
37 236
37 239
37 250
37 257
37 268
37 277
37 280
37 283
37 290
37 292
37 296
37 297
37 304
37 310
37 311
37 322
37 323
37 333
37 361
37 372
37 374
37 381
37 382
37 392
37 393
37 394
37 399
37 406
37 407
37 409
37 411
37 413
37 419
37 437
37 438
37 439
37 443
37 444
37 462
37 466
37 506
37 507
37 508
37 509
37 511
37 515
37 519
37 547
37 567
37 604
37 605
37 606
37 607
37 668
37 670
37 823
37 824
37 825
37 826
37 827
37 828
37 829
37 830
37 831
37 832
37 833
37 834
37 835
37 836
37 1651
37 1652
37 1653
37 1654
37 1655
37 1656
37 1657
38 222
38 470
38 705
38 706
38 707
38 708
38 709
38 898
39 57
39 290
39 379
39 710
39 726
39 1122
40 60
40 74
40 137
40 146
40 163
40 169
40 174
40 202
40 203
40 204
40 213
40 247
40 268
40 290
40 291
40 300
40 301
40 302
40 316
40 317
40 333
40 334
40 336
40 364
40 365
40 382
40 411
40 418
40 466
40 473
40 552
40 553
40 554
40 555
40 556
40 557
40 682
40 683
40 684
40 685
40 686
40 694
40 956
40 957
40 1928
40 1929
40 1930
40 1931
40 1932
40 1933
40 1934
40 1935
40 1936
40 1937
40 1938
40 1939
40 1940
41 154
41 169
41 364
41 440
41 473
41 514
41 640
41 851
41 1672
41 1673
41 1674
41 1675
42 157
42 356
42 373
42 865
42 1696
43 70
43 87
43 152
43 263
43 285
43 380
43 400
43 660
44 86
44 128
44 144
44 595
44 739
44 801
44 1345
45 138
45 169
45 220
45 272
45 286
45 327
45 356
45 411
45 433
45 451
45 465
45 802
45 859
45 919
45 1549
45 1550
45 1551
46 713
46 969
46 1140
46 1141
46 1142
46 1143
46 1144
46 1145
46 1146
46 1147
46 1148
47 102
47 169
47 181
47 204
47 213
47 248
47 268
47 280
47 282
47 290
47 292
47 300
47 303
47 361
47 364
47 370
47 383
47 385
47 386
47 393
47 431
47 434
47 450
47 464
47 478
47 486
47 496
47 497
47 499
47 501
47 507
47 512
47 518
47 552
47 711
47 721
47 723
47 736
47 761
47 787
47 798
47 851
47 965
47 1003
47 1004
47 1005
47 1006
47 1007
47 1008
47 1009
47 1010
47 1011
47 1012
47 1013
47 1014
47 1015
47 1016
47 1017
47 1018
47 1019
47 1020
47 1021
47 1022
47 1023
48 81
48 107
48 155
48 177
48 182
48 204
48 214
48 247
48 254
48 317
48 351
48 376
48 473
48 550
48 890
48 967
48 1786
48 1787
48 1788
48 1789
48 1790
48 1791
48 1792
48 1793
49 108
49 190
49 221
49 269
49 312
49 319
49 408
49 415
49 457
49 516
49 613
49 614
49 622
49 1697
49 1698
50 222
50 246
50 269
50 319
50 329
50 353
50 384
50 456
50 457
50 470
50 542
50 674
50 1885
51 124
51 169
51 221
51 301
51 383
51 464
51 672
51 673
51 674
52 401
52 530
52 837
52 838
52 1524
52 1525
52 1526
52 1527
52 1528
53 125
53 142
53 173
53 185
53 257
53 270
53 277
53 292
53 293
53 304
53 347
53 366
53 367
53 409
53 420
53 481
53 525
53 526
53 527
53 528
53 566
53 568
53 569
53 624
53 625
53 626
53 627
53 628
53 629
53 630
53 631
53 632
53 633
53 634
53 635
53 636
53 637
53 665
53 702
53 703
53 881
53 882
53 883
53 884
53 885
53 886
53 887
53 888
53 918
53 1757
53 1758
53 1759
53 1760
53 1761
53 1762
53 1763
53 1764
53 1765
53 1766
53 1767
53 1768
53 1769
53 1770
53 1771
53 1772
53 1773
53 1774
53 1775
53 1776
53 1777
53 1778
53 1779
53 1780
53 1781
53 1782
53 1783
54 674
54 940
54 1909
55 405
55 423
55 543
55 544
55 580
56 202
56 229
56 243
56 244
56 265
56 275
56 283
56 289
56 309
56 332
56 334
56 401
56 442
56 459
56 514
56 516
56 687
56 859
56 860
56 861
56 913
56 1682
56 1683
56 1684
56 1685
56 1686
56 1687
56 1688
56 1689
57 68
57 97
57 111
57 117
57 157
57 202
57 204
57 229
57 239
57 240
57 243
57 244
57 245
57 251
57 265
57 266
57 267
57 275
57 286
57 287
57 288
57 298
57 315
57 319
57 330
57 331
57 332
57 335
57 355
57 356
57 357
57 358
57 366
57 939
57 1906
57 1907
57 1908
58 222
58 246
58 950
59 259
59 272
59 291
59 351
59 417
59 449
59 454
59 460
59 553
59 572
59 579
59 589
59 711
59 744
59 852
59 1135
60 64
60 134
60 137
60 146
60 163
60 174
60 204
60 207
60 209
60 213
60 216
60 229
60 239
60 268
60 290
60 297
60 310
60 311
60 323
60 333
60 374
60 382
60 388
60 399
60 428
60 443
60 466
60 519
60 555
60 606
60 729
60 804
60 818
60 824
60 826
60 827
60 828
60 831
60 832
60 959
60 980
60 1303
60 1304
60 1305
60 1306
60 1307
60 1308
60 1309
60 1310
60 1311
60 1312
60 1313
60 1314
60 1315
60 1316
61 623
61 874
61 940
61 1730
62 74
62 238
62 242
62 291
62 302
62 326
62 524
62 938
62 1724
62 1725
63 532
63 1000
63 1001
64 134
64 146
64 169
64 174
64 202
64 207
64 209
64 213
64 216
64 219
64 236
64 247
64 250
64 268
64 283
64 290
64 297
64 300
64 310
64 311
64 316
64 322
64 323
64 333
64 382
64 399
64 443
64 444
64 445
64 446
64 519
64 521
64 532
64 605
64 606
64 682
64 686
64 738
64 739
64 763
64 816
64 817
64 833
64 872
64 1362
64 1363
64 1364
64 1365
64 1366
64 1367
64 1368
64 1369
64 1370
64 1371
64 1372
64 1373
64 1374
64 1375
65 221
65 269
65 396
65 644
65 907
65 1094
66 405
66 423
66 580
66 1378
67 379
67 911
67 1709
67 1710
67 1711
67 1712
68 72
68 78
68 93
68 94
68 97
68 111
68 117
68 149
68 157
68 202
68 229
68 239
68 240
68 243
68 244
68 245
68 251
68 265
68 266
68 267
68 275
68 286
68 287
68 288
68 298
68 315
68 322
68 330
68 331
68 341
68 357
68 358
68 394
68 402
68 510
68 610
69 95
69 170
69 299
69 375
69 596
69 759
69 1108
69 1109
69 1110
69 1111
69 1112
69 1113
69 1114
69 1115
70 87
70 152
70 162
70 285
70 380
70 395
70 400
71 169
71 204
71 210
71 335
71 353
71 447
71 459
71 640
71 891
71 1794
71 1795
72 78
72 93
72 97
72 117
72 157
72 202
72 229
72 240
72 244
72 245
72 265
72 266
72 267
72 275
72 287
72 288
72 298
72 309
72 315
72 322
72 330
72 331
72 334
72 341
72 350
72 357
72 369
72 394
72 417
72 427
72 465
72 535
72 757
73 164
73 343
73 1159
74 75
74 126
74 129
74 175
74 202
74 215
74 217
74 239
74 244
74 245
74 251
74 266
74 287
74 402
74 904
75 204
75 326
75 337
75 343
75 418
75 434
75 450
75 518
75 553
75 710
75 1069
75 1070
75 1071
75 1072
75 1073
75 1074
75 1075
75 1076
75 1077
75 1078
75 1079
75 1080
75 1081
76 132
76 318
76 335
76 336
76 337
76 418
76 467
76 553
76 681
76 981
76 982
76 1529
77 80
77 140
77 153
77 192
77 201
77 226
77 284
77 306
77 412
77 416
77 469
77 479
77 485
77 549
77 559
77 560
77 565
77 574
77 658
77 675
77 676
77 677
77 678
77 679
77 680
77 688
77 689
77 692
77 724
77 725
77 735
77 747
77 748
77 749
77 901
77 935
77 952
77 953
77 960
77 1246
77 1247
77 1248
77 1249
77 1250
77 1251
77 1252
77 1253
77 1254
77 1255
77 1256
78 202
78 222
78 244
78 278
78 286
78 287
78 298
78 322
78 332
78 350
78 369
78 426
78 661
78 727
78 904
79 113
79 169
79 242
79 252
79 291
79 325
79 336
79 337
79 345
79 364
79 375
79 471
79 684
79 1105
80 284
80 405
80 543
80 544
80 559
80 658
80 659
80 690
80 691
80 932
80 933
80 934
80 935
80 1888
80 1889
80 1890
80 1891
80 1892
80 1893
80 1894
80 1895
80 1896
80 1897
80 1898
80 1899
80 1900
80 1901
81 214
81 247
81 254
81 317
81 474
81 562
81 693
81 965
81 966
81 967
82 681
82 1924
82 1925
82 1926
82 1927
83 161
83 191
83 222
83 246
83 319
83 329
83 353
83 456
83 541
83 542
83 657
84 102
84 147
84 189
84 248
84 256
84 282
84 303
84 370
84 386
84 430
84 431
84 432
84 468
84 478
84 480
84 496
84 512
84 549
84 560
84 565
84 608
84 676
84 680
84 697
84 720
84 721
84 722
84 723
84 724
84 725
84 781
84 795
84 975
84 1280
84 1281
84 1282
84 1283
84 1284
84 1285
84 1286
84 1287
84 1288
85 141
85 533
85 743
85 908
85 1423
86 128
86 527
86 595
86 800
86 1202
86 1203
87 162
87 263
87 285
87 1751
88 135
88 458
88 1719
88 1720
88 1721
88 1722
88 1723
89 248
89 416
89 417
89 697
89 698
89 699
89 970
89 971
89 972
89 973
89 974
89 975
89 976
89 977
89 1959
89 1960
89 1961
89 1962
89 1963
90 160
90 269
90 571
90 695
90 875
90 1160
90 1161
90 1162
90 1163
90 1164
90 1165
90 1166
90 1167
90 1168
90 1169
90 1170
90 1171
90 1172
90 1173
90 1174
90 1175
90 1176
90 1177
90 1178
90 1179
90 1180
90 1181
90 1182
90 1183
90 1184
90 1185
90 1186
90 1187
90 1188
90 1189
90 1190
90 1191
90 1192
90 1193
90 1194
90 1195
90 1196
90 1197
90 1198
90 1199
90 1200
91 190
91 356
91 865
91 1692
91 1693
91 1694
91 1695
92 98
92 169
92 193
92 205
92 247
92 365
92 383
92 467
92 477
92 558
92 687
92 700
92 958
92 959
92 1941
92 1942
93 97
93 117
93 202
93 239
93 240
93 243
93 244
93 251
93 265
93 266
93 267
93 275
93 286
93 287
93 288
93 289
93 298
93 309
93 315
93 322
93 331
93 334
93 341
93 357
93 358
93 369
93 394
93 402
93 426
93 427
93 465
94 111
94 202
94 213
94 229
94 239
94 240
94 243
94 244
94 245
94 251
94 265
94 266
94 267
94 274
94 275
94 286
94 288
94 289
94 298
94 315
94 322
94 330
94 331
94 341
94 358
94 385
94 433
94 510
95 170
95 203
95 247
95 252
95 313
95 589
95 759
95 1457
95 1458
96 99
96 133
96 160
96 166
96 204
96 238
96 257
96 268
96 270
96 277
96 280
96 292
96 300
96 304
96 328
96 413
96 463
96 482
96 500
96 501
96 503
96 548
96 590
96 598
96 599
96 600
96 807
96 920
96 921
96 922
96 923
96 924
96 1402
96 1403
96 1404
96 1405
96 1406
96 1407
96 1408
96 1409
96 1410
96 1411
96 1412
96 1413
96 1414
96 1415
96 1416
96 1417
96 1418
96 1419
96 1420
96 1421
96 1422
97 117
97 157
97 202
97 229
97 239
97 240
97 243
97 244
97 245
97 251
97 265
97 266
97 267
97 275
97 287
97 288
97 298
97 309
97 315
97 322
97 330
97 341
97 357
97 358
97 369
97 402
97 426
97 427
98 328
98 352
98 558
98 683
98 822
98 1640
99 156
99 160
99 197
99 204
99 213
99 257
99 268
99 270
99 277
99 280
99 304
99 319
99 360
99 361
99 372
99 381
99 387
99 389
99 393
99 409
99 437
99 462
99 481
99 492
99 500
99 502
99 505
99 547
99 581
99 582
99 585
99 586
99 590
99 592
99 670
99 769
99 770
99 773
99 809
99 1379
99 1380
99 1381
99 1382
99 1383
99 1384
99 1385
99 1386
99 1387
99 1388
100 238
100 328
100 351
100 352
100 378
100 403
100 404
100 452
100 453
100 454
100 455
100 472
100 536
100 537
100 538
100 539
100 540
100 552
100 555
100 649
100 650
100 651
100 654
100 655
100 927
100 928
100 929
100 1629
100 1630
100 1631
100 1632
100 1633
101 147
101 176
101 204
101 213
101 268
101 296
101 302
101 382
101 476
101 608
101 609
101 839
101 840
101 841
101 842
101 843
101 844
101 845
101 846
101 847
101 848
101 849
101 850
101 1658
101 1659
101 1660
101 1661
101 1662
101 1663
101 1664
101 1665
101 1666
101 1667
101 1668
101 1669
101 1670
101 1671
102 156
102 181
102 186
102 189
102 219
102 227
102 260
102 282
102 294
102 303
102 340
102 361
102 370
102 374
102 386
102 432
102 436
102 478
102 480
102 485
102 486
102 495
102 496
102 497
102 498
102 499
102 574
102 577
102 583
102 594
102 601
102 611
102 698
102 699
102 719
102 720
102 786
102 1276
102 1277
102 1278
102 1279
103 643
103 903
104 140
104 234
104 305
104 339
104 356
104 425
104 429
104 430
104 488
104 490
104 492
104 493
104 573
104 575
104 730
104 742
104 767
104 774
104 946
104 962
104 1216
104 1217
104 1218
104 1219
104 1220
104 1221
104 1222
104 1223
104 1224
104 1225
104 1226
104 1227
104 1228
104 1229
104 1230
105 119
105 515
105 1333
105 1334
106 335
106 535
106 661
106 876
106 1747
106 1748
106 1749
106 1750
107 890
107 1137
107 1138
107 1139
108 120
108 175
108 415
108 799
109 327
109 1537
109 1538
109 1539
109 1540
109 1541
110 115
110 139
110 160
110 197
110 213
110 296
110 387
110 392
110 435
110 462
110 463
110 491
110 493
110 501
110 502
110 506
110 546
110 585
110 586
110 587
110 598
110 750
110 751
110 752
110 753
110 754
110 755
110 756
110 772
110 805
110 1429
110 1430
110 1431
110 1432
110 1433
110 1434
110 1435
110 1436
110 1437
110 1438
110 1439
110 1440
110 1441
110 1442
110 1443
110 1444
111 202
111 229
111 240
111 243
111 244
111 245
111 251
111 265
111 267
111 275
111 286
111 288
111 315
111 330
111 510
111 511
111 610
111 852
112 289
112 359
112 397
112 864
112 1691
113 175
113 273
113 318
114 253
114 366
114 853
114 854
114 855
114 856
114 857
114 858
114 1561
114 1562
114 1563
114 1564
115 160
115 197
115 257
115 296
115 321
115 361
115 389
115 392
115 406
115 429
115 435
115 438
115 439
115 491
115 492
115 493
115 494
115 503
115 508
115 509
115 547
115 548
115 590
115 607
115 617
115 669
115 767
115 768
115 769
115 770
115 771
115 772
115 773
115 774
115 775
115 776
115 777
115 808
115 1512
115 1513
115 1514
115 1515
115 1516
116 189
117 157
117 240
117 243
117 245
117 267
117 286
117 288
117 298
117 309
117 315
117 322
117 331
117 334
117 341
117 350
117 357
117 358
117 369
117 394
117 427
118 189
118 204
118 229
118 248
118 250
118 279
118 282
118 303
118 340
118 393
118 432
118 495
118 508
118 591
118 592
118 779
118 780
118 781
118 782
118 783
118 784
118 785
118 786
118 787
118 788
118 789
118 790
118 791
118 792
118 793
118 1518
118 1519
118 1520
118 1521
119 188
119 410
119 515
119 1690
120 221
120 384
120 475
120 644
121 242
121 301
121 326
121 327
121 377
121 414
121 460
121 646
121 918
121 1809
121 1810
122 300
122 337
122 364
122 684
122 1648
122 1649
122 1650
123 130
123 238
123 328
123 351
123 352
123 378
123 403
123 404
123 452
123 453
123 454
123 455
123 472
123 536
123 537
123 538
123 539
123 540
123 647
123 648
123 649
123 650
123 651
123 652
123 653
123 654
123 655
123 656
123 925
123 926
123 927
123 928
123 929
123 1884
124 672
125 142
125 147
125 173
125 185
125 224
125 257
125 270
125 277
125 280
125 292
125 293
125 304
125 366
125 367
125 409
125 420
125 525
125 526
125 527
125 528
125 566
125 568
125 569
125 624
125 626
125 627
125 628
125 629
125 630
125 631
125 632
125 633
125 635
125 636
125 702
125 703
125 882
125 885
125 887
125 888
126 202
126 203
126 204
126 238
126 242
126 252
126 254
126 264
126 326
126 327
126 344
126 345
126 363
126 377
126 388
126 414
126 428
126 489
126 524
126 572
126 718
126 757
126 1102
127 238
127 252
127 314
127 345
127 398
128 595
128 665
128 800
128 801
128 1545
128 1546
128 1547
128 1548
129 301
129 326
129 450
129 894
130 169
130 238
130 242
130 291
130 328
130 352
130 454
130 529
130 653
131 348
131 349
131 513
131 612
131 909
132 336
132 337
132 418
132 701
132 981
132 982
132 1998
132 1999
133 160
133 389
133 392
133 409
133 600
133 669
133 806
133 825
133 964
133 1040
133 1041
133 1042
133 1043
133 1044
133 1045
133 1046
133 1047
133 1048
133 1049
133 1050
133 1051
133 1052
133 1053
133 1054
133 1055
133 1056
133 1057
133 1058
133 1059
133 1060
133 1061
133 1062
133 1063
133 1064
133 1065
133 1066
133 1067
133 1068
134 156
134 174
134 185
134 204
134 209
134 213
134 219
134 236
134 250
134 268
134 290
134 293
134 297
134 302
134 310
134 311
134 316
134 318
134 345
134 374
134 382
134 398
134 413
134 444
134 459
134 519
134 520
134 521
134 554
134 557
134 619
134 620
134 873
134 1718
135 314
135 458
135 564
135 661
135 937
135 1902
135 1903
136 169
136 313
136 518
136 616
136 955
137 302
137 382
137 413
137 466
137 520
137 557
137 620
137 1634
137 1635
137 1636
137 1637
137 1638
137 1639
138 228
138 517
138 523
138 870
138 1553
138 1554
138 1555
138 1556
138 1557
139 231
139 362
139 387
139 425
139 493
139 587
139 717
139 728
139 750
139 751
139 752
139 753
139 754
139 755
139 756
139 797
139 1258
139 1259
139 1260
139 1261
139 1262
139 1263
139 1264
139 1265
139 1266
139 1267
139 1268
139 1269
139 1270
139 1271
139 1272
139 1273
139 1274
139 1275
140 334
140 339
140 485
140 489
140 659
140 742
140 1389
140 1390
141 177
142 185
142 293
142 367
142 525
142 526
142 569
142 629
142 866
142 867
142 868
142 869
142 1699
142 1700
142 1701
142 1702
142 1703
142 1704
142 1705
142 1706
142 1707
142 1708
143 203
143 252
143 291
143 301
143 318
143 375
143 672
143 1530
144 147
144 189
144 235
144 248
144 282
144 295
144 303
144 340
144 370
144 392
144 430
144 431
144 432
144 436
144 478
144 496
144 497
144 498
144 499
144 594
144 601
144 794
144 795
144 796
144 797
144 798
144 1531
144 1532
144 1533
144 1534
144 1535
144 1536
145 154
145 196
145 365
145 895
145 896
145 1716
145 1717
146 156
146 163
146 169
146 207
146 209
146 250
146 310
146 311
146 316
146 323
146 445
146 520
146 521
146 683
146 1641
146 1642
146 1643
146 1644
146 1645
146 1646
146 1647
147 185
147 248
147 257
147 268
147 270
147 277
147 280
147 292
147 304
147 420
147 422
147 435
147 476
147 482
147 486
147 487
147 582
147 609
147 839
147 840
147 846
147 884
147 1391
147 1392
147 1393
147 1394
147 1395
147 1396
147 1397
147 1398
148 372
148 439
148 494
148 509
148 604
148 664
148 762
148 764
148 766
148 1231
148 1232
148 1233
148 1234
148 1235
148 1236
148 1237
148 1238
148 1239
148 1240
148 1241
148 1242
148 1243
149 203
149 222
149 251
149 266
149 287
149 335
149 345
149 390
149 391
149 397
149 402
149 414
149 1567
149 1568
150 246
150 276
150 329
150 384
150 396
150 531
150 641
151 238
151 328
151 351
151 352
151 378
151 403
151 404
151 452
151 453
151 454
151 455
151 472
151 536
151 537
151 538
151 539
151 540
151 647
151 648
151 649
151 650
151 652
151 653
151 656
151 905
151 925
152 242
152 263
152 285
152 312
152 410
152 1289
152 1290
153 248
153 412
153 416
153 468
153 469
153 480
153 559
153 560
153 688
153 689
153 690
153 691
153 692
153 960
153 961
153 962
153 963
153 964
153 1943
153 1944
153 1945
153 1946
153 1947
153 1948
153 1949
153 1950
153 1951
153 1952
153 1953
153 1954
153 1955
153 1956
153 1957
154 169
154 365
154 440
154 447
154 473
154 514
154 597
154 685
155 225
155 254
155 317
155 344
155 363
155 760
155 1356
156 166
156 204
156 207
156 209
156 216
156 219
156 229
156 236
156 239
156 250
156 283
156 297
156 311
156 316
156 323
156 381
156 443
156 447
156 554
156 617
156 618
156 871
156 872
156 1713
156 1714
156 1715
157 239
157 240
157 243
157 245
157 266
157 267
157 286
157 287
157 288
157 298
157 309
157 315
157 331
157 341
157 357
157 358
158 551
159 336
159 464
159 701
159 1149
159 1150
159 1151
159 1152
159 1153
160 166
160 197
160 268
160 277
160 360
160 361
160 389
160 435
160 463
160 482
160 500
160 501
160 502
160 503
160 598
160 599
160 600
160 607
160 805
160 806
160 807
160 808
160 809
160 947
160 1565
160 1566
161 931
161 1886
161 1887
162 263
162 395
162 999
163 204
163 207
163 209
163 213
163 236
163 250
163 286
163 290
163 297
163 310
163 311
163 316
163 323
163 333
163 399
163 404
163 410
163 445
163 446
163 447
163 474
163 619
163 816
163 817
163 818
163 819
163 877
163 1628
164 229
164 240
164 243
164 251
164 274
164 289
164 332
164 343
164 354
164 442
164 451
164 862
164 863
165 354
165 391
165 424
165 545
166 257
166 270
166 277
166 280
166 292
166 387
166 389
166 406
166 419
166 435
166 437
166 438
166 491
166 500
166 506
166 599
166 637
166 671
166 692
166 731
166 771
166 835
166 948
166 1212
166 1213
166 1214
166 1215
167 968
167 1732
167 1733
167 1734
167 1735
167 1736
167 1737
167 1738
167 1739
167 1740
168 184
168 240
168 243
168 251
168 283
168 309
168 332
168 334
168 350
168 372
168 394
168 412
168 439
168 442
168 534
168 576
168 645
168 738
168 1340
168 1341
169 187
169 215
169 223
169 241
169 255
169 272
170 596
170 681
170 1552
171 383
171 434
171 822
172 314
172 318
172 345
172 375
172 524
172 556
172 877
172 878
172 1752
172 1753
172 1754
172 1755
173 257
173 270
173 277
173 280
173 292
173 304
173 366
173 438
173 525
173 526
173 528
173 566
173 568
173 625
173 626
173 627
173 628
173 632
173 633
173 635
173 636
173 881
173 883
173 886
173 1035
173 1036
173 1037
174 207
174 209
174 213
174 219
174 236
174 239
174 250
174 283
174 290
174 297
174 310
174 311
174 316
174 323
174 333
174 345
174 444
174 446
174 467
174 605
174 619
174 1002
175 203
175 204
175 252
175 302
175 325
175 364
175 398
176 608
176 841
176 842
176 843
176 844
176 845
176 847
176 850
176 1342
176 1343
176 1344
177 252
177 254
177 264
177 269
177 299
177 363
177 375
177 397
177 415
177 550
177 556
177 593
177 1522
177 1523
178 229
178 244
178 245
178 265
178 266
178 267
178 275
178 465
178 687
179 563
179 704
179 1024
180 717
180 1207
180 1208
180 1209
180 1210
181 186
181 248
181 282
181 303
181 370
181 374
181 386
181 431
181 486
181 499
181 503
181 506
181 577
181 582
181 583
181 736
181 737
181 780
181 1357
181 1358
181 1359
181 1360
181 1361
182 247
182 249
182 254
182 317
182 363
182 376
182 448
182 588
183 328
183 351
183 352
183 378
183 403
183 404
183 452
183 453
183 455
183 536
183 537
183 538
183 539
183 540
183 648
183 651
183 656
183 820
183 905
183 926
184 240
184 243
184 283
184 332
184 334
184 350
184 412
184 534
184 645
184 912
184 913
184 914
184 915
184 916
184 1808
185 216
185 224
185 257
185 270
185 277
185 292
185 293
185 304
185 367
185 419
185 420
185 421
185 441
185 481
185 482
185 567
185 568
185 569
185 703
185 983
186 303
186 386
186 387
186 502
186 577
186 585
186 586
186 587
186 728
186 812
186 1291
186 1292
186 1293
186 1294
186 1295
186 1296
186 1297
186 1298
186 1299
186 1300
186 1301
186 1302
187 204
187 252
187 300
187 301
187 314
187 377
187 440
187 597
187 803
187 804
187 829
187 1558
187 1559
187 1560
188 643
188 878
188 1428
189 248
189 282
189 294
189 303
189 308
189 368
189 436
189 492
189 504
189 512
189 594
189 719
189 746
189 1245
190 195
190 218
190 319
190 408
190 457
190 551
190 581
190 613
190 614
190 951
190 1099
190 1100
191 222
191 246
191 319
191 329
191 353
191 456
191 541
191 542
191 657
192 201
192 416
192 468
192 469
192 479
192 549
192 675
192 676
192 677
192 678
192 679
192 680
192 688
192 689
192 698
192 952
192 953
192 1920
192 1921
192 1922
192 1923
193 205
193 467
193 477
193 700
193 1542
193 1543
193 1544
194 257
194 296
194 304
194 360
194 406
194 419
194 438
194 505
194 567
194 618
194 668
194 733
194 737
194 768
194 775
194 776
194 777
194 949
194 954
194 1085
194 1086
194 1087
194 1088
194 1089
194 1090
195 408
195 458
195 638
195 1784
195 1785
196 238
196 328
196 351
196 352
196 378
196 403
196 453
196 472
196 895
196 896
196 1800
197 199
197 204
197 213
197 268
197 270
197 293
197 296
197 297
197 304
197 360
197 361
197 406
197 459
197 460
197 467
197 482
197 548
197 662
197 938
197 1904
197 1905
198 366
198 1039
199 387
199 463
199 487
199 491
199 575
199 730
199 731
199 741
199 1319
199 1320
199 1321
199 1322
199 1323
199 1324
199 1325
199 1326
199 1327
199 1328
199 1329
199 1330
199 1331
199 1332
200 477
200 558
200 900
201 234
201 282
201 479
201 565
201 675
201 679
201 697
201 901
201 902
201 973
201 976
201 977
201 1802
201 1803
201 1804
202 220
202 223
202 274
203 223
203 255
203 271
203 278
203 955
204 205
204 225
205 302
205 477
205 700
205 980
205 1993
205 1994
205 1995
205 1996
206 264
206 359
206 461
206 570
206 666
206 667
206 1120
206 1121
207 209
207 213
207 216
207 236
207 239
207 250
207 283
207 297
207 311
207 316
207 323
207 333
207 399
207 445
207 446
207 521
208 384
208 401
208 638
208 1038
209 216
209 236
209 250
209 283
209 297
209 310
209 311
209 323
209 333
209 399
209 445
209 446
209 729
210 325
210 571
210 642
211 246
211 456
211 542
211 564
211 917
212 257
212 277
212 360
212 361
212 381
212 408
212 409
212 462
212 463
212 546
212 547
212 548
212 668
212 669
212 670
212 671
212 947
212 948
212 949
212 1917
212 1918
212 1919
213 220
213 227
213 338
213 421
213 441
214 247
214 254
214 317
214 376
214 448
215 291
215 302
215 324
215 327
215 572
215 718
216 236
216 239
216 283
216 290
216 297
216 310
216 374
216 392
216 437
216 444
216 972
216 1119
217 247
217 249
217 252
217 314
217 317
217 363
217 364
217 376
217 562
217 588
217 693
217 732
218 408
218 457
218 551
218 581
218 613
218 614
218 1335
218 1336
219 236
219 381
219 462
219 830
219 873
219 984
219 985
219 986
219 987
219 988
219 989
219 990
219 991
219 992
220 274
220 356
220 451
220 535
220 919
220 1811
220 1812
220 1813
220 1814
220 1815
223 242
223 291
223 301
223 314
223 355
223 377
224 238
224 247
224 270
224 280
224 292
224 296
224 388
224 389
224 406
224 508
224 546
224 592
224 671
224 1091
224 1092
224 1093
225 291
225 302
225 388
225 428
225 849
225 1157
225 1158
226 239
226 264
226 332
226 355
226 356
226 363
226 411
226 417
226 485
226 535
226 574
226 576
226 611
226 716
226 1244
227 270
227 292
227 296
227 321
227 381
227 662
227 758
227 1448
227 1449
227 1450
227 1451
227 1452
227 1453
227 1454
227 1455
227 1456
228 517
228 523
228 615
230 325
231 1317
231 1318
232 412
232 480
232 733
232 734
232 963
232 1346
232 1347
232 1348
232 1349
232 1350
232 1351
232 1352
232 1353
232 1354
232 1355
233 740
233 917
234 282
234 305
234 339
234 416
234 425
234 429
234 430
234 468
234 469
234 479
234 488
234 573
234 902
235 248
235 280
235 282
235 303
235 386
235 393
235 431
235 437
235 497
235 507
235 583
235 794
235 836
235 1399
235 1400
236 268
236 343
236 1095
236 1096
236 1097
236 1098
237 621
237 622
238 1339
241 247
241 1627
242 278
247 255
248 256
248 294
248 295
248 308
248 368
249 448
249 562
249 588
249 693
249 732
250 274
250 279
252 271
252 362
253 366
253 643
254 255
254 363
254 550
255 317
255 318
255 384
255 385
255 413
255 414
255 474
255 968
256 303
256 319
256 478
256 479
256 480
256 565
256 1997
258 378
258 403
258 647
258 652
258 654
258 655
258 1107
259 272
259 449
259 460
259 634
259 744
260 512
260 853
260 854
260 855
260 856
260 857
260 858
260 1676
261 401
261 897
262 892
262 893
262 1796
262 1797
270 421
270 441
271 318
271 375
271 398
271 414
271 1118
272 1116
272 1117
274 283
274 365
274 1211
277 441
277 483
278 314
278 524
279 495
279 779
279 782
279 785
279 788
279 789
279 790
280 294
282 295
282 308
284 559
284 658
284 659
284 690
284 691
284 932
284 933
284 934
284 1101
290 421
293 367
293 527
293 528
293 624
293 630
294 303
294 360
294 370
294 504
294 509
294 1103
294 1104
295 498
295 746
295 791
295 810
295 1425
296 321
296 422
305 339
305 425
305 429
305 430
305 488
305 573
305 575
305 734
306 416
306 468
306 469
306 549
306 677
306 678
306 735
307 747
307 748
307 749
307 1426
308 370
308 436
308 504
308 601
308 810
308 961
318 362
320 337
320 398
321 360
321 419
321 637
321 758
321 871
321 1401
324 346
324 371
324 821
328 338
338 351
338 352
338 378
338 404
338 452
338 455
339 425
339 488
339 623
339 1445
342 603
342 616
344 1201
346 880
346 1756
347 513
347 561
347 903
362 954
367 420
367 566
367 702
368 436
368 487
368 498
368 741
368 796
371 821
372 484
372 712
373 433
373 778
373 1517
381 1427
407 1446
407 1447
408 522
420 483
421 1123
422 476
422 609
422 848
441 1677
449 531
457 522
476 487
483 625
484 494
484 604
522 1731
712 1136
